nNurses = 77;
nHours = 33;
minHours = 9;
maxHours = 20;
maxConsec = 18;
maxPresence = 28;
demand = [37, 34, 38, 35, 39, 38, 43, 42, 37, 42, 46, 43, 46, 44, 44, 43, 44, 39, 40, 43, 38, 37, 38, 40, 44, 45, 43, 38, 38, 39, 39, 44, 41];
